100
128
23
55
20
64
34
53
2
58
14
30
13
1
29
50
30
24
8
43
53
11
2
23
17
17
45
42
33
19
12
59
35
36
11
22
6
14
2
57
9
57
24
34
43
16
24
11
29
26
60
35
14
9
40
2
16
61
20
47
32
10
14
63
16
25
15
15
13
59
18
45
54
19
11
14
15
25
30
15
22
10
18
3
16
1
56
20
46
62
35
40
16
37
17
56
18
49
35
16
40
37